Route #1: 0 13 15 54 21 25 48 63 0
Route #2: 0 5 28 56 55 22 52 45 12 0
Route #3: 0 9 58 31 18 47 2 41 66 0
Route #4: 0 43 10 7 8 37 24 0
Route #5: 0 17 38 29 59 51 27 16 0
Route #6: 0 32 65 23 19 1 11 14 0
Route #7: 0 46 4 50 20 35 49 40 53 0
Route #8: 0 39 42 36 6 34 64 44 0
Route #9: 0 60 3 57 30 61 62 0
Route #10: 0 33 26 0
Cost 1165:
